11 14 11 3 8 12 11 17 9 2 20 10 
13 2 17 3 13 7 7 11 4 1 13 4 
8 20 3 5 18 12 16 16 13 4 6 20 
5 13 19 19 12 8 2 4 3 8 11 2 
6 3 9 14 6 4 8 2 2 2 11 15 
17 18 7 13 12 13 1 15 2 10 10 12 
14 7 4 14 10 2 7 17 17 14 5 8 
8 14 12 20 1 6 12 4 11 18 1 18 
5 14 16 17 18 1 3 16 16 3 3 18 
16 19 16 5 20 10 17 1 15 20 17 1 
4 18 19 7 13 12 19 19 10 18 12 15 
14 4 16 18 14 17 19 3 14 6 8 12 
